(set-logic ALL)
(declare-var i (_ BitVec 32))
(declare-var i! (_ BitVec 32))
(declare-var conf_0 (_ BitVec 32))
(declare-var conf_0! (_ BitVec 32))
(declare-var conf_1 (_ BitVec 32))
(declare-var conf_1! (_ BitVec 32))
(declare-var conf_2 (_ BitVec 32))
(declare-var conf_2! (_ BitVec 32))
(declare-var conf_3 (_ BitVec 32))
(declare-var conf_3! (_ BitVec 32))
(declare-var conf_4 (_ BitVec 32))
(declare-var conf_4! (_ BitVec 32))
(declare-var x (_ BitVec 32))
(declare-var x! (_ BitVec 32))
(declare-var y (_ BitVec 32))
(declare-var y! (_ BitVec 32))
(declare-var tmp (_ BitVec 32))
(declare-var tmp! (_ BitVec 32))
(declare-var i_0 (_ BitVec 32))
(declare-var i_0! (_ BitVec 32))
(declare-var i_1 (_ BitVec 32))
(declare-var i_1! (_ BitVec 32))
(declare-var i_2 (_ BitVec 32))
(declare-var i_2! (_ BitVec 32))
(declare-var i_3 (_ BitVec 32))
(declare-var i_3! (_ BitVec 32))
(declare-var i_4 (_ BitVec 32))
(declare-var i_4! (_ BitVec 32))
(declare-var conf_0_0 (_ BitVec 32))
(declare-var conf_0_0! (_ BitVec 32))
(declare-var conf_1_0 (_ BitVec 32))
(declare-var conf_1_0! (_ BitVec 32))
(declare-var conf_1_1 (_ BitVec 32))
(declare-var conf_1_1! (_ BitVec 32))
(declare-var conf_1_2 (_ BitVec 32))
(declare-var conf_1_2! (_ BitVec 32))
(declare-var conf_1_3 (_ BitVec 32))
(declare-var conf_1_3! (_ BitVec 32))
(declare-var conf_2_0 (_ BitVec 32))
(declare-var conf_2_0! (_ BitVec 32))
(declare-var conf_3_0 (_ BitVec 32))
(declare-var conf_3_0! (_ BitVec 32))
(declare-var conf_4_0 (_ BitVec 32))
(declare-var conf_4_0! (_ BitVec 32))
(declare-var x_0 (_ BitVec 32))
(declare-var x_0! (_ BitVec 32))
(declare-var y_0 (_ BitVec 32))
(declare-var y_0! (_ BitVec 32))
(synth-fun inv-f((parameter0 (_ BitVec 32))(parameter1 (_ BitVec 32))(parameter2 (_ BitVec 32))(parameter3 (_ BitVec 32))(parameter4 (_ BitVec 32))(parameter5 (_ BitVec 32))(parameter6 (_ BitVec 32))(parameter7 (_ BitVec 32))(parameter8 (_ BitVec 32))(parameter9 (_ BitVec 32))(parameter10 (_ BitVec 32))(parameter11 (_ BitVec 32))(parameter12 (_ BitVec 32))(parameter13 (_ BitVec 32))(parameter14 (_ BitVec 32))(parameter15 (_ BitVec 32))(parameter16 (_ BitVec 32))(parameter17 (_ BitVec 32))(parameter18 (_ BitVec 32))(parameter19 (_ BitVec 32))(parameter20 (_ BitVec 32))(parameter21 (_ BitVec 32))(parameter22 (_ BitVec 32))(parameter23 (_ BitVec 32)))Bool) 
(constraint (=> (and (and (and (and (and (and (and (and (and (and (and (and (and (and (and (and (= i i_1) (= conf_0 conf_0_0) ) (= conf_1 conf_1_0) ) (= conf_2 conf_2_0) ) (= conf_3 conf_3_0) ) (= conf_4 conf_4_0) ) (= x x_0) ) (= y y_0) ) (= conf_0_0 (_ bv1 32)) ) (= conf_1_0 (_ bv6 32)) ) (= conf_2_0 (_ bv5 32)) ) (= conf_3_0 (_ bv1 32)) ) (= conf_4_0 (_ bv2 32)) ) (= i_1 (_ bv0 32)) ) (bvuge x_0 (_ bv0 32)) ) (bvuge y_0 (_ bv0 32)) ) (bvuge x_0 y_0) )(inv-f i conf_0 conf_1 conf_2 conf_3 conf_4 x y tmp i_0 i_1 i_2 i_3 i_4 conf_0_0 conf_1_0 conf_1_1 conf_1_2 conf_1_3 conf_2_0 conf_3_0 conf_4_0 x_0 y_0 )))
(constraint (=> (and (inv-f i conf_0 conf_1 conf_2 conf_3 conf_4 x y tmp i_0 i_1 i_2 i_3 i_4 conf_0_0 conf_1_0 conf_1_1 conf_1_2 conf_1_3 conf_2_0 conf_3_0 conf_4_0 x_0 y_0 ) (or (or (and (and (and (and (and (and (and (and (and (and (and (and (= i_2 i) (= conf_1_1 conf_1) ) (= i_2 i!) ) (= conf_1_1 conf_1!) ) (= i i!) ) (= conf_0 conf_0!) ) (= conf_1 conf_1!) ) (= conf_2 conf_2!) ) (= conf_3 conf_3!) ) (= conf_4 conf_4!) ) (= x x!) ) (= y y!) ) (= tmp tmp!) ) (and (and (and (and (and (and (and (and (and (and (and (and (and (and (and (and (and (and (and (and (and (= i_2 i) (= conf_1_1 conf_1) ) (bvult i_2 y_0) ) (= i_3 (bvadd i_2 (_ bv1 32))) ) (= conf_1_2 (bvsub conf_2_0 conf_4_0)) ) (= i_4 i_3) ) (= conf_1_3 conf_1_2) ) (= i_4 i!) ) (= conf_1_3 conf_1!) ) (= conf_0 conf_0_0) ) (= conf_0! conf_0_0) ) (= conf_2 conf_2_0) ) (= conf_2! conf_2_0) ) (= conf_3 conf_3_0) ) (= conf_3! conf_3_0) ) (= conf_4 conf_4_0) ) (= conf_4! conf_4_0) ) (= x x_0) ) (= x! x_0) ) (= y y_0) ) (= y! y_0) ) (= tmp tmp!) ) ) (and (and (and (and (and (and (and (and (and (and (and (and (and (and (and (and (and (and (and (= i_2 i) (= conf_1_1 conf_1) ) (not (bvult i_2 y_0)) ) (= i_4 i_2) ) (= conf_1_3 conf_1_1) ) (= i_4 i!) ) (= conf_1_3 conf_1!) ) (= conf_0 conf_0_0) ) (= conf_0! conf_0_0) ) (= conf_2 conf_2_0) ) (= conf_2! conf_2_0) ) (= conf_3 conf_3_0) ) (= conf_3! conf_3_0) ) (= conf_4 conf_4_0) ) (= conf_4! conf_4_0) ) (= x x_0) ) (= x! x_0) ) (= y y_0) ) (= y! y_0) ) (= tmp tmp!) ) ) )(inv-f i! conf_0! conf_1! conf_2! conf_3! conf_4! x! y! tmp! i_0! i_1! i_2! i_3! i_4! conf_0_0! conf_1_0! conf_1_1! conf_1_2! conf_1_3! conf_2_0! conf_3_0! conf_4_0! x_0! y_0! )))
(constraint (=> (inv-f i conf_0 conf_1 conf_2 conf_3 conf_4 x y tmp i_0 i_1 i_2 i_3 i_4 conf_0_0 conf_1_0 conf_1_1 conf_1_2 conf_1_3 conf_2_0 conf_3_0 conf_4_0 x_0 y_0 )(or (not (and (and (and (and (and (and (and (= i i_2) (= conf_0 conf_0_0) ) (= conf_1 conf_1_1) ) (= conf_2 conf_2_0) ) (= conf_3 conf_3_0) ) (= conf_4 conf_4_0) ) (= x x_0) ) (= y y_0) )) (not (and (bvult i_2 y_0) (not (bvule (_ bv0 32) i_2)) )) )))
(check-synth)

